
Gurobi 7.0.2 (mac64, Python) logging started Wed Jul 12 12:25:14 2017


Gurobi 7.0.2 (mac64, Python) logging started Wed Jul 12 12:25:17 2017


Gurobi 7.0.2 (mac64, Python) logging started Wed Jul 12 12:28:40 2017


Gurobi 7.0.2 (mac64, Python) logging started Wed Jul 12 12:31:11 2017


Gurobi 7.0.2 (mac64, Python) logging started Wed Jul 12 12:31:47 2017


Gurobi 7.0.2 (mac64, Python) logging started Wed Jul 12 12:33:17 2017


Gurobi 7.0.2 (mac64, Python) logging started Wed Jul 12 12:38:10 2017


Gurobi 7.0.2 (mac64, Python) logging started Wed Jul 12 12:41:37 2017


Gurobi 7.0.2 (mac64, Python) logging started Wed Jul 12 12:41:50 2017


Gurobi 7.0.2 (mac64, Python) logging started Wed Jul 12 12:42:48 2017

